(set-info :smt-lib-version 2.7)
(set-logic ALL)
(set-info :source |
Generated on: 2026-06-22
Generator: pog2smtlib-2.7 github.com/CLEARSY/pog2smtlib-2.7 (-l HO_ALL -rpX)
Application: Discharging a proof obligation generated by aTelierB from an anonymized B machine
Target solver: CVC5 (--mbqi --enum-inst)
Time limit: 1200.0
|)
(set-info :license "www.gnu.org/licenses/gpl-3.0.en.html")
(set-info :category "industrial")
(set-info :status unknown)

(set-option :print-success false)
(define-sort |Z| () Int)
(declare-sort P 1)
(define-sort |POW Z| () (P |Z|))
(define-sort |BOOL| () Bool)
(declare-sort |s61| 0)
(define-const MAXINT |Z| 2147483647)
(declare-fun |set.in Z| (|Z| |POW Z|) Bool)
(declare-const s753$1 |BOOL|)
(declare-const s425 |Z|)
(declare-const s753$2 |BOOL|)
(declare-const s754$1 |BOOL|)
(declare-const s754$2 |BOOL|)
(declare-const s818 |Z|)
(declare-const s819 |s61|)
(declare-const s754 |BOOL|)
(declare-const s753 |BOOL|)
(declare-const NAT |POW Z|)
(assert (!
  (forall ((e |Z|)) (= (|set.in Z| e NAT) (and (<= 0 e) (<= e MAXINT))))
  :named |ax.set.in.NAT|))
(assert (!
  (= s754$1 true)
  :named |Local_Hyp:0|))
(assert (!
  (= s754$2 false)
  :named |Local_Hyp:1|))
(assert (!
  (= s753$2 false)
  :named |Local_Hyp:2|))
(assert (!
  (|set.in Z| s818 NAT)
  :named |Local_Hyp:3|))
(assert (!
  (<= s818 s425)
  :named |Local_Hyp:4|))
(assert (!
  (|set.in Z| s425 NAT)
  :named |Define:ctx:256|))
(assert (!
  (= s753 s753$1)
  :named |Define:inv:2|))
(assert (!
  (= s754 s754$1)
  :named |Define:inv:3|))
(assert (!
  (not
    (= s753$1 s753$2))
  :named |Goal|))
(check-sat)
(exit)
